certificates/rado_a15_c235_N49.drat
16 -46 -48 0
-46 -48 -49 0
21 46 -49 0
46 -49 0
d 21 46 -49 0
-21 -49 0
-49 0
21 -46 0
-46 0
-21 0
16 0
14 0
-11 0
-9 0
-39 0
-19 0
-41 0
18 0
15 0
13 0
17 0
-28 0
-8 0
0
